; benchmark generated from python API
(set-info :status unknown)
(declare-fun |A(state_160)| () (_ BitVec 4))
(declare-fun |A(state_159)| () (_ BitVec 4))
(declare-fun |A(state_158)| () (_ BitVec 4))
(declare-fun |A(state_151)| () (_ BitVec 4))
(declare-fun |A(state_149)| () (_ BitVec 4))
(declare-fun |A(state_147)| () (_ BitVec 4))
(declare-fun |A(state_146)| () (_ BitVec 4))
(declare-fun |A(state_145)| () (_ BitVec 4))
(declare-fun |A(state_144)| () (_ BitVec 4))
(declare-fun |A(state_143)| () (_ BitVec 4))
(declare-fun |A(state_142)| () (_ BitVec 4))
(declare-fun |A(state_124)| () (_ BitVec 4))
(declare-fun |A(state_123)| () (_ BitVec 4))
(declare-fun |A(state_122)| () (_ BitVec 4))
(declare-fun |A(state_121)| () (_ BitVec 4))
(declare-fun |A(state_120)| () (_ BitVec 4))
(declare-fun |A(state_118)| () (_ BitVec 4))
(declare-fun |A(state_117)| () (_ BitVec 4))
(declare-fun |A(state_115)| () (_ BitVec 4))
(declare-fun |A(state_114)| () (_ BitVec 4))
(declare-fun |A(state_113)| () (_ BitVec 4))
(declare-fun |A(state_112)| () (_ BitVec 4))
(declare-fun |A(state_111)| () (_ BitVec 4))
(declare-fun |A(state_79)| () (_ BitVec 4))
(declare-fun |A(state_78)| () (_ BitVec 4))
(declare-fun |A(state_76)| () (_ BitVec 4))
(declare-fun |A(state_75)| () (_ BitVec 4))
(declare-fun |A(state_74)| () (_ BitVec 4))
(declare-fun |A(state_73)| () (_ BitVec 4))
(declare-fun |A(state_72)| () (_ BitVec 4))
(declare-fun |A(state_71)| () (_ BitVec 4))
(declare-fun |A(state_69)| () (_ BitVec 4))
(declare-fun |A(state_68)| () (_ BitVec 4))
(declare-fun |A(state_67)| () (_ BitVec 4))
(declare-fun |A(state_66)| () (_ BitVec 4))
(declare-fun |A(state_37)| () (_ BitVec 4))
(declare-fun |A(state_36)| () (_ BitVec 4))
(declare-fun |A(state_35)| () (_ BitVec 4))
(declare-fun |A(state_33)| () (_ BitVec 4))
(declare-fun |A(state_32)| () (_ BitVec 4))
(declare-fun |A(state_31)| () (_ BitVec 4))
(declare-fun |A(state_30)| () (_ BitVec 4))
(declare-fun |A(state_14)| () (_ BitVec 4))
(declare-fun |A(state_13)| () (_ BitVec 4))
(declare-fun |A(state_12)| () (_ BitVec 4))
(declare-fun |A(state_11)| () (_ BitVec 4))
(declare-fun |A(state_10)| () (_ BitVec 4))
(declare-fun |A(state_0)| () (_ BitVec 4))
(declare-fun sketch_hole_o2y () (_ BitVec 4))
(declare-fun sketch_hole_o2x () (_ BitVec 4))
(declare-fun sketch_hole_o1y () (_ BitVec 4))
(declare-fun sketch_hole_o1x () (_ BitVec 4))
(declare-fun useless_const_0 () (_ BitVec 4))
(declare-fun useless_const_1 () (_ BitVec 4))
(declare-fun useless_const_2 () (_ BitVec 4))
(declare-fun useless_const_3 () (_ BitVec 4))
(declare-fun useless_const_4 () (_ BitVec 4))
(declare-fun useless_const_5 () (_ BitVec 4))
(declare-fun useless_const_6 () (_ BitVec 4))
(declare-fun useless_const_7 () (_ BitVec 4))
(declare-fun useless_const_8 () (_ BitVec 4))
(declare-fun useless_const_9 () (_ BitVec 4))
(declare-fun useless_const_10 () (_ BitVec 4))
(declare-fun useless_const_11 () (_ BitVec 4))
(declare-fun useless_const_12 () (_ BitVec 4))
(declare-fun useless_const_13 () (_ BitVec 4))
(declare-fun useless_const_14 () (_ BitVec 4))
(declare-fun useless_const_15 () (_ BitVec 4))
(assert
 (let (($x182 (forall ((sketch_hole_o1x (_ BitVec 4)) (sketch_hole_o1y (_ BitVec 4)) (sketch_hole_o2x (_ BitVec 4)) (sketch_hole_o2y (_ BitVec 4)) )(let (($x171 (valid sketch_hole_o1x sketch_hole_o1y sketch_hole_o2x sketch_hole_o2y |A(state_0)| |A(state_10)| |A(state_11)| |A(state_12)| |A(state_13)| |A(state_14)| |A(state_30)| |A(state_31)| |A(state_32)| |A(state_33)| |A(state_35)| |A(state_36)| |A(state_37)| |A(state_66)| |A(state_67)| |A(state_68)| |A(state_69)| |A(state_71)| |A(state_72)| |A(state_73)| |A(state_74)| |A(state_75)| |A(state_76)| |A(state_78)| |A(state_79)| |A(state_111)| |A(state_112)| |A(state_113)| |A(state_114)| |A(state_115)| |A(state_117)| |A(state_118)| |A(state_120)| |A(state_121)| |A(state_122)| |A(state_123)| |A(state_124)| |A(state_142)| |A(state_143)| |A(state_144)| |A(state_145)| |A(state_146)| |A(state_147)| |A(state_149)| |A(state_151)| |A(state_158)| |A(state_159)| |A(state_160)|)))
 (let (($x163 (bvule |A(state_160)| (_ bv3 4))))
 (let (($x162 (bvuge |A(state_160)| (_ bv0 4))))
 (let (($x161 (bvule |A(state_159)| (_ bv3 4))))
 (let (($x160 (bvuge |A(state_159)| (_ bv0 4))))
 (let (($x159 (bvule |A(state_158)| (_ bv3 4))))
 (let (($x158 (bvuge |A(state_158)| (_ bv0 4))))
 (let (($x157 (bvule |A(state_151)| (_ bv3 4))))
 (let (($x156 (bvuge |A(state_151)| (_ bv0 4))))
 (let (($x155 (bvule |A(state_149)| (_ bv3 4))))
 (let (($x154 (bvuge |A(state_149)| (_ bv0 4))))
 (let (($x153 (bvule |A(state_147)| (_ bv3 4))))
 (let (($x152 (bvuge |A(state_147)| (_ bv0 4))))
 (let (($x151 (bvule |A(state_146)| (_ bv3 4))))
 (let (($x150 (bvuge |A(state_146)| (_ bv0 4))))
 (let (($x149 (bvule |A(state_145)| (_ bv3 4))))
 (let (($x148 (bvuge |A(state_145)| (_ bv0 4))))
 (let (($x147 (bvule |A(state_144)| (_ bv3 4))))
 (let (($x146 (bvuge |A(state_144)| (_ bv0 4))))
 (let (($x145 (bvule |A(state_143)| (_ bv3 4))))
 (let (($x144 (bvuge |A(state_143)| (_ bv0 4))))
 (let (($x143 (bvule |A(state_142)| (_ bv3 4))))
 (let (($x142 (bvuge |A(state_142)| (_ bv0 4))))
 (let (($x141 (bvule |A(state_124)| (_ bv3 4))))
 (let (($x140 (bvuge |A(state_124)| (_ bv0 4))))
 (let (($x139 (bvule |A(state_123)| (_ bv3 4))))
 (let (($x138 (bvuge |A(state_123)| (_ bv0 4))))
 (let (($x137 (bvule |A(state_122)| (_ bv3 4))))
 (let (($x136 (bvuge |A(state_122)| (_ bv0 4))))
 (let (($x135 (bvule |A(state_121)| (_ bv3 4))))
 (let (($x134 (bvuge |A(state_121)| (_ bv0 4))))
 (let (($x133 (bvule |A(state_120)| (_ bv3 4))))
 (let (($x132 (bvuge |A(state_120)| (_ bv0 4))))
 (let (($x131 (bvule |A(state_118)| (_ bv3 4))))
 (let (($x130 (bvuge |A(state_118)| (_ bv0 4))))
 (let (($x129 (bvule |A(state_117)| (_ bv3 4))))
 (let (($x128 (bvuge |A(state_117)| (_ bv0 4))))
 (let (($x127 (bvule |A(state_115)| (_ bv3 4))))
 (let (($x126 (bvuge |A(state_115)| (_ bv0 4))))
 (let (($x125 (bvule |A(state_114)| (_ bv3 4))))
 (let (($x124 (bvuge |A(state_114)| (_ bv0 4))))
 (let (($x123 (bvule |A(state_113)| (_ bv3 4))))
 (let (($x122 (bvuge |A(state_113)| (_ bv0 4))))
 (let (($x121 (bvule |A(state_112)| (_ bv3 4))))
 (let (($x120 (bvuge |A(state_112)| (_ bv0 4))))
 (let (($x119 (bvule |A(state_111)| (_ bv3 4))))
 (let (($x118 (bvuge |A(state_111)| (_ bv0 4))))
 (let (($x117 (bvule |A(state_79)| (_ bv3 4))))
 (let (($x116 (bvuge |A(state_79)| (_ bv0 4))))
 (let (($x115 (bvule |A(state_78)| (_ bv3 4))))
 (let (($x114 (bvuge |A(state_78)| (_ bv0 4))))
 (let (($x113 (bvule |A(state_76)| (_ bv3 4))))
 (let (($x112 (bvuge |A(state_76)| (_ bv0 4))))
 (let (($x111 (bvule |A(state_75)| (_ bv3 4))))
 (let (($x110 (bvuge |A(state_75)| (_ bv0 4))))
 (let (($x109 (bvule |A(state_74)| (_ bv3 4))))
 (let (($x108 (bvuge |A(state_74)| (_ bv0 4))))
 (let (($x107 (bvule |A(state_73)| (_ bv3 4))))
 (let (($x106 (bvuge |A(state_73)| (_ bv0 4))))
 (let (($x105 (bvule |A(state_72)| (_ bv3 4))))
 (let (($x104 (bvuge |A(state_72)| (_ bv0 4))))
 (let (($x103 (bvule |A(state_71)| (_ bv3 4))))
 (let (($x102 (bvuge |A(state_71)| (_ bv0 4))))
 (let (($x101 (bvule |A(state_69)| (_ bv3 4))))
 (let (($x100 (bvuge |A(state_69)| (_ bv0 4))))
 (let (($x99 (bvule |A(state_68)| (_ bv3 4))))
 (let (($x98 (bvuge |A(state_68)| (_ bv0 4))))
 (let (($x97 (bvule |A(state_67)| (_ bv3 4))))
 (let (($x96 (bvuge |A(state_67)| (_ bv0 4))))
 (let (($x95 (bvule |A(state_66)| (_ bv3 4))))
 (let (($x94 (bvuge |A(state_66)| (_ bv0 4))))
 (let (($x93 (bvule |A(state_37)| (_ bv3 4))))
 (let (($x92 (bvuge |A(state_37)| (_ bv0 4))))
 (let (($x91 (bvule |A(state_36)| (_ bv3 4))))
 (let (($x90 (bvuge |A(state_36)| (_ bv0 4))))
 (let (($x89 (bvule |A(state_35)| (_ bv3 4))))
 (let (($x88 (bvuge |A(state_35)| (_ bv0 4))))
 (let (($x87 (bvule |A(state_33)| (_ bv3 4))))
 (let (($x86 (bvuge |A(state_33)| (_ bv0 4))))
 (let (($x85 (bvule |A(state_32)| (_ bv3 4))))
 (let (($x84 (bvuge |A(state_32)| (_ bv0 4))))
 (let (($x83 (bvule |A(state_31)| (_ bv3 4))))
 (let (($x82 (bvuge |A(state_31)| (_ bv0 4))))
 (let (($x81 (bvule |A(state_30)| (_ bv3 4))))
 (let (($x80 (bvuge |A(state_30)| (_ bv0 4))))
 (let (($x79 (bvule |A(state_14)| (_ bv3 4))))
 (let (($x78 (bvuge |A(state_14)| (_ bv0 4))))
 (let (($x77 (bvule |A(state_13)| (_ bv3 4))))
 (let (($x76 (bvuge |A(state_13)| (_ bv0 4))))
 (let (($x75 (bvule |A(state_12)| (_ bv3 4))))
 (let (($x74 (bvuge |A(state_12)| (_ bv0 4))))
 (let (($x73 (bvule |A(state_11)| (_ bv3 4))))
 (let (($x72 (bvuge |A(state_11)| (_ bv0 4))))
 (let (($x71 (bvule |A(state_10)| (_ bv3 4))))
 (let (($x70 (bvuge |A(state_10)| (_ bv0 4))))
 (let (($x69 (bvule |A(state_0)| (_ bv3 4))))
 (let (($x67 (bvuge |A(state_0)| (_ bv0 4))))
 (let (($x180 (and (bvuge sketch_hole_o1x (_ bv0 4)) (bvule sketch_hole_o1x (_ bv2 4)) (bvuge sketch_hole_o1y (_ bv0 4)) (bvule sketch_hole_o1y (_ bv2 4)) (bvuge sketch_hole_o2x (_ bv0 4)) (bvule sketch_hole_o2x (_ bv2 4)) (bvuge sketch_hole_o2y (_ bv0 4)) (bvule sketch_hole_o2y (_ bv2 4)) $x67 $x69 $x70 $x71 $x72 $x73 $x74 $x75 $x76 $x77 $x78 $x79 $x80 $x81 $x82 $x83 $x84 $x85 $x86 $x87 $x88 $x89 $x90 $x91 $x92 $x93 $x94 $x95 $x96 $x97 $x98 $x99 $x100 $x101 $x102 $x103 $x104 $x105 $x106 $x107 $x108 $x109 $x110 $x111 $x112 $x113 $x114 $x115 $x116 $x117 $x118 $x119 $x120 $x121 $x122 $x123 $x124 $x125 $x126 $x127 $x128 $x129 $x130 $x131 $x132 $x133 $x134 $x135 $x136 $x137 $x138 $x139 $x140 $x141 $x142 $x143 $x144 $x145 $x146 $x147 $x148 $x149 $x150 $x151 $x152 $x153 $x154 $x155 $x156 $x157 $x158 $x159 $x160 $x161 $x162 $x163)))
 (=> $x180 $x171))))))))))))))))))))))))))))))))))))))))))))))))))))))))))))))))))))))))))))))))))))))))))))))))))))
 ))
 (let (($x163 (bvule |A(state_160)| (_ bv3 4))))
 (let (($x162 (bvuge |A(state_160)| (_ bv0 4))))
 (let (($x161 (bvule |A(state_159)| (_ bv3 4))))
 (let (($x160 (bvuge |A(state_159)| (_ bv0 4))))
 (let (($x159 (bvule |A(state_158)| (_ bv3 4))))
 (let (($x158 (bvuge |A(state_158)| (_ bv0 4))))
 (let (($x157 (bvule |A(state_151)| (_ bv3 4))))
 (let (($x156 (bvuge |A(state_151)| (_ bv0 4))))
 (let (($x155 (bvule |A(state_149)| (_ bv3 4))))
 (let (($x154 (bvuge |A(state_149)| (_ bv0 4))))
 (let (($x153 (bvule |A(state_147)| (_ bv3 4))))
 (let (($x152 (bvuge |A(state_147)| (_ bv0 4))))
 (let (($x151 (bvule |A(state_146)| (_ bv3 4))))
 (let (($x150 (bvuge |A(state_146)| (_ bv0 4))))
 (let (($x149 (bvule |A(state_145)| (_ bv3 4))))
 (let (($x148 (bvuge |A(state_145)| (_ bv0 4))))
 (let (($x147 (bvule |A(state_144)| (_ bv3 4))))
 (let (($x146 (bvuge |A(state_144)| (_ bv0 4))))
 (let (($x145 (bvule |A(state_143)| (_ bv3 4))))
 (let (($x144 (bvuge |A(state_143)| (_ bv0 4))))
 (let (($x143 (bvule |A(state_142)| (_ bv3 4))))
 (let (($x142 (bvuge |A(state_142)| (_ bv0 4))))
 (let (($x141 (bvule |A(state_124)| (_ bv3 4))))
 (let (($x140 (bvuge |A(state_124)| (_ bv0 4))))
 (let (($x139 (bvule |A(state_123)| (_ bv3 4))))
 (let (($x138 (bvuge |A(state_123)| (_ bv0 4))))
 (let (($x137 (bvule |A(state_122)| (_ bv3 4))))
 (let (($x136 (bvuge |A(state_122)| (_ bv0 4))))
 (let (($x135 (bvule |A(state_121)| (_ bv3 4))))
 (let (($x134 (bvuge |A(state_121)| (_ bv0 4))))
 (let (($x133 (bvule |A(state_120)| (_ bv3 4))))
 (let (($x132 (bvuge |A(state_120)| (_ bv0 4))))
 (let (($x131 (bvule |A(state_118)| (_ bv3 4))))
 (let (($x130 (bvuge |A(state_118)| (_ bv0 4))))
 (let (($x129 (bvule |A(state_117)| (_ bv3 4))))
 (let (($x128 (bvuge |A(state_117)| (_ bv0 4))))
 (let (($x127 (bvule |A(state_115)| (_ bv3 4))))
 (let (($x126 (bvuge |A(state_115)| (_ bv0 4))))
 (let (($x125 (bvule |A(state_114)| (_ bv3 4))))
 (let (($x124 (bvuge |A(state_114)| (_ bv0 4))))
 (let (($x123 (bvule |A(state_113)| (_ bv3 4))))
 (let (($x122 (bvuge |A(state_113)| (_ bv0 4))))
 (let (($x121 (bvule |A(state_112)| (_ bv3 4))))
 (let (($x120 (bvuge |A(state_112)| (_ bv0 4))))
 (let (($x119 (bvule |A(state_111)| (_ bv3 4))))
 (let (($x118 (bvuge |A(state_111)| (_ bv0 4))))
 (let (($x117 (bvule |A(state_79)| (_ bv3 4))))
 (let (($x116 (bvuge |A(state_79)| (_ bv0 4))))
 (let (($x115 (bvule |A(state_78)| (_ bv3 4))))
 (let (($x114 (bvuge |A(state_78)| (_ bv0 4))))
 (let (($x113 (bvule |A(state_76)| (_ bv3 4))))
 (let (($x112 (bvuge |A(state_76)| (_ bv0 4))))
 (let (($x111 (bvule |A(state_75)| (_ bv3 4))))
 (let (($x110 (bvuge |A(state_75)| (_ bv0 4))))
 (let (($x109 (bvule |A(state_74)| (_ bv3 4))))
 (let (($x108 (bvuge |A(state_74)| (_ bv0 4))))
 (let (($x107 (bvule |A(state_73)| (_ bv3 4))))
 (let (($x106 (bvuge |A(state_73)| (_ bv0 4))))
 (let (($x105 (bvule |A(state_72)| (_ bv3 4))))
 (let (($x104 (bvuge |A(state_72)| (_ bv0 4))))
 (let (($x103 (bvule |A(state_71)| (_ bv3 4))))
 (let (($x102 (bvuge |A(state_71)| (_ bv0 4))))
 (let (($x101 (bvule |A(state_69)| (_ bv3 4))))
 (let (($x100 (bvuge |A(state_69)| (_ bv0 4))))
 (let (($x99 (bvule |A(state_68)| (_ bv3 4))))
 (let (($x98 (bvuge |A(state_68)| (_ bv0 4))))
 (let (($x97 (bvule |A(state_67)| (_ bv3 4))))
 (let (($x96 (bvuge |A(state_67)| (_ bv0 4))))
 (let (($x95 (bvule |A(state_66)| (_ bv3 4))))
 (let (($x94 (bvuge |A(state_66)| (_ bv0 4))))
 (let (($x93 (bvule |A(state_37)| (_ bv3 4))))
 (let (($x92 (bvuge |A(state_37)| (_ bv0 4))))
 (let (($x91 (bvule |A(state_36)| (_ bv3 4))))
 (let (($x90 (bvuge |A(state_36)| (_ bv0 4))))
 (let (($x89 (bvule |A(state_35)| (_ bv3 4))))
 (let (($x88 (bvuge |A(state_35)| (_ bv0 4))))
 (let (($x87 (bvule |A(state_33)| (_ bv3 4))))
 (let (($x86 (bvuge |A(state_33)| (_ bv0 4))))
 (let (($x85 (bvule |A(state_32)| (_ bv3 4))))
 (let (($x84 (bvuge |A(state_32)| (_ bv0 4))))
 (let (($x83 (bvule |A(state_31)| (_ bv3 4))))
 (let (($x82 (bvuge |A(state_31)| (_ bv0 4))))
 (let (($x81 (bvule |A(state_30)| (_ bv3 4))))
 (let (($x80 (bvuge |A(state_30)| (_ bv0 4))))
 (let (($x79 (bvule |A(state_14)| (_ bv3 4))))
 (let (($x78 (bvuge |A(state_14)| (_ bv0 4))))
 (let (($x77 (bvule |A(state_13)| (_ bv3 4))))
 (let (($x76 (bvuge |A(state_13)| (_ bv0 4))))
 (let (($x75 (bvule |A(state_12)| (_ bv3 4))))
 (let (($x74 (bvuge |A(state_12)| (_ bv0 4))))
 (let (($x73 (bvule |A(state_11)| (_ bv3 4))))
 (let (($x72 (bvuge |A(state_11)| (_ bv0 4))))
 (let (($x71 (bvule |A(state_10)| (_ bv3 4))))
 (let (($x70 (bvuge |A(state_10)| (_ bv0 4))))
 (let (($x69 (bvule |A(state_0)| (_ bv3 4))))
 (let (($x67 (bvuge |A(state_0)| (_ bv0 4))))
 (let (($x164 (and (bvuge sketch_hole_o1x (_ bv0 4)) (bvule sketch_hole_o1x (_ bv2 4)) (bvuge sketch_hole_o1y (_ bv0 4)) (bvule sketch_hole_o1y (_ bv2 4)) (bvuge sketch_hole_o2x (_ bv0 4)) (bvule sketch_hole_o2x (_ bv2 4)) (bvuge sketch_hole_o2y (_ bv0 4)) (bvule sketch_hole_o2y (_ bv2 4)) $x67 $x69 $x70 $x71 $x72 $x73 $x74 $x75 $x76 $x77 $x78 $x79 $x80 $x81 $x82 $x83 $x84 $x85 $x86 $x87 $x88 $x89 $x90 $x91 $x92 $x93 $x94 $x95 $x96 $x97 $x98 $x99 $x100 $x101 $x102 $x103 $x104 $x105 $x106 $x107 $x108 $x109 $x110 $x111 $x112 $x113 $x114 $x115 $x116 $x117 $x118 $x119 $x120 $x121 $x122 $x123 $x124 $x125 $x126 $x127 $x128 $x129 $x130 $x131 $x132 $x133 $x134 $x135 $x136 $x137 $x138 $x139 $x140 $x141 $x142 $x143 $x144 $x145 $x146 $x147 $x148 $x149 $x150 $x151 $x152 $x153 $x154 $x155 $x156 $x157 $x158 $x159 $x160 $x161 $x162 $x163)))
 (and $x164 $x182))))))))))))))))))))))))))))))))))))))))))))))))))))))))))))))))))))))))))))))))))))))))))))))))))))
(assert
 (= (_ bv0 4) useless_const_0))
(assert
 (= (_ bv1 4) useless_const_1))
(assert
 (= (_ bv2 4) useless_const_2))
(assert
 (= (_ bv3 4) useless_const_3))
(assert
 (= (_ bv4 4) useless_const_4))
(assert
 (= (_ bv5 4) useless_const_5))
(assert
 (= (_ bv6 4) useless_const_6))
(assert
 (= (_ bv7 4) useless_const_7))
(assert
 (= (_ bv8 4) useless_const_8))
(assert
 (= (_ bv9 4) useless_const_9))
(assert
 (= (_ bv10 4) useless_const_10))
(assert
 (= (_ bv11 4) useless_const_11))
(assert
 (= (_ bv12 4) useless_const_12))
(assert
 (= (_ bv13 4) useless_const_13))
(assert
 (= (_ bv14 4) useless_const_14))
(assert
 (= (_ bv15 4) useless_const_15))
(check-sat)
